(set-logic QF_BV)
(declare-fun _substvar_3593_ () (_ BitVec 11))
(declare-fun _substvar_6360_ () Bool)
(declare-fun _substvar_10957_ () Bool)
(declare-fun _substvar_3561_ () (_ BitVec 11))
(declare-fun _substvar_3565_ () (_ BitVec 11))
(declare-fun _substvar_3570_ () (_ BitVec 11))
(declare-fun _substvar_10960_ () Bool)
(assert (or (and true true (= _substvar_3561_ (bvadd (_ bv17 11) (_ bv1 11)))) false false (and false false false (= _substvar_3561_ (_ bv0 11))) false (and true true true (= _substvar_3561_ (bvadd (_ bv17 11) (_ bv5 11)))) (and true true true (= _substvar_3561_ (bvsub (_ bv17 11) (_ bv5 11)))) false false false false false false false false false (and true true true (= _substvar_3561_ (bvsub (_ bv527 11) (_ bv17 11)))) (and true true true (= _substvar_3561_ (bvadd (_ bv17 11) (_ bv51 11)))) false false false false false false false false false false false false false false false false false false false false false false false false false false false false false false false false false false false false false false (and true true (= _substvar_3561_ (bvsub (_ bv1019 11) (_ bv1 11)))) false false false (and true true true (= _substvar_3561_ (bvadd (_ bv1019 11) (_ bv41 11)))) false false false (and true true true (= _substvar_3561_ (bvsub (_ bv1019 11) (_ bv527 11)))) false false (and true true true (= _substvar_3561_ (bvsub (_ bv1019 11) (_ bv51 11)))) false (and true true true (= _substvar_3561_ (bvadd (_ bv1019 11) (_ bv95 11)))) (and true true true (= _substvar_3561_ (bvsub (_ bv0 11) (_ bv95 11)))) false false (and true true true (= _substvar_3561_ (bvsub (_ bv1019 11) (_ bv0 11)))) false false false false false false false false false (and true true true (= _substvar_3561_ (bvadd (_ bv41 11) (_ bv0 11)))) false false false (and true true true (= _substvar_3561_ (_ bv0 11))) (and true true true (= _substvar_3561_ (bvsub (_ bv51 11) (_ bv41 11)))) false false false false false false false false false false false false false false false (and true true true (= _substvar_3561_ (bvsub (_ bv0 11) (_ bv51 11)))) false (and true true true (= _substvar_3561_ (bvadd (_ bv527 11) (_ bv95 11)))) (and true true true (= _substvar_3561_ (bvsub (_ bv527 11) (_ bv95 11)))) false false false false false false false (and true true (= _substvar_3561_ (bvadd (_ bv51 11) (_ bv0 11)))) (and true true (= _substvar_3561_ (bvsub (_ bv51 11) (_ bv1 11)))) false false false (and true true true (= _substvar_3561_ (bvadd (_ bv51 11) (_ bv95 11)))) false false false false false false false false false false false false false false false false false false false false false false false false false false false false false false false false))
(assert (or (and true _substvar_10960_ (= _substvar_3565_ (bvadd (_ bv17 11) (_ bv0 11)))) false false false false (and true true _substvar_10957_ (= _substvar_3565_ (_ bv0 11))) false false false false (and true true true (= _substvar_3565_ (bvsub (_ bv1019 11) (bvshl (_ bv17 11) _substvar_3593_)))) false false false false false false false false false false false (and true true true (= _substvar_3565_ (bvsub (_ bv0 11) (bvshl (_ bv17 11) _substvar_3593_)))) false false false false false false false (and true true (bvugt (_ bv17 11) (bvshl _substvar_3561_ _substvar_3593_)) (= _substvar_3565_ (_ bv0 11))) (and true true (bvugt _substvar_3561_ (_ bv0 11)) (= _substvar_3565_ (bvsub _substvar_3561_ (bvshl (_ bv17 11) _substvar_3593_)))) false false false false false false (and true true (bvugt (_ bv5 11) (bvshl (_ bv1019 11) _substvar_3593_)) (= _substvar_3565_ (bvsub (_ bv0 11) (bvshl (_ bv1019 11) _substvar_3593_)))) false (and true true true (= _substvar_3565_ (bvadd (_ bv0 11) (bvshl (_ bv41 11) _substvar_3593_)))) (and true true true (= _substvar_3565_ (bvsub (_ bv5 11) (bvshl (_ bv41 11) _substvar_3593_)))) (and true true true (= _substvar_3565_ (bvsub (_ bv0 11) (bvshl (_ bv5 11) _substvar_3593_)))) (and true true true (= _substvar_3565_ (bvadd (_ bv0 11) (bvshl (_ bv527 11) _substvar_3593_)))) (and true true (bvugt (_ bv5 11) (bvshl (_ bv527 11) _substvar_3593_)) (= _substvar_3565_ (_ bv0 11))) false false false (and true true true (= _substvar_3565_ (bvsub (_ bv51 11) (bvshl (_ bv5 11) _substvar_3593_)))) (and true true true (= _substvar_3565_ (bvadd (_ bv0 11) (bvshl (_ bv95 11) _substvar_3593_)))) false false false false false (and true true true (= _substvar_3565_ (bvadd (_ bv5 11) (_ bv0 11)))) false false (and true true true (= _substvar_3565_ (_ bv0 11))) (and true true (bvugt (_ bv5 11) (bvshl _substvar_3561_ _substvar_3593_)) (= _substvar_3565_ (_ bv0 11))) false false false false false false false false false false false (and true true (bvugt (_ bv527 11) (bvshl (_ bv1019 11) _substvar_3593_)) (= _substvar_3565_ (bvsub (_ bv527 11) (_ bv1019 11)))) (and true true true (= _substvar_3565_ (bvadd (_ bv1019 11) (bvshl (_ bv51 11) _substvar_3593_)))) (and true true true (= _substvar_3565_ (bvsub (_ bv1019 11) (bvshl (_ bv51 11) _substvar_3593_)))) false false false false false false false false false false false false false false false false false false (and true true true (= _substvar_3565_ (bvadd (_ bv41 11) (bvshl (_ bv527 11) _substvar_3593_)))) (and true true true (= _substvar_3565_ (bvsub (_ bv0 11) (bvshl (_ bv527 11) _substvar_3593_)))) false (and true true true (= _substvar_3565_ (bvadd (_ bv0 11) (bvshl (_ bv51 11) _substvar_3593_)))) false false false false false false false false false false false false false (and true true (bvugt _substvar_3561_ (_ bv0 11)) (= _substvar_3565_ (bvsub _substvar_3561_ (bvshl (_ bv41 11) _substvar_3593_)))) false false false false false false false false false false false false false false false false false false false false false false false false false false false false false false false false false false false false false false false false false false false false false false false false (and true true true (= _substvar_3565_ (bvadd (_ bv0 11) (bvshl _substvar_3561_ _substvar_3593_)))) false (and true true (bvugt _substvar_3561_ (bvshl (_ bv95 11) _substvar_3593_)) (= _substvar_3565_ (bvsub _substvar_3561_ (bvshl (_ bv95 11) _substvar_3593_)))) false false false false false false false false false false false false false false false false false false false (and true true (= _substvar_3565_ (bvadd _substvar_3561_ (bvshl (_ bv1 11) _substvar_3593_)))) (and true (bvugt _substvar_3561_ (bvshl (_ bv1 11) _substvar_3593_)) (= _substvar_3565_ (bvsub _substvar_3561_ (bvshl (_ bv1 11) _substvar_3593_)))) (and true true (= _substvar_3565_ (bvsub (_ bv1 11) (bvshl _substvar_3561_ _substvar_3593_)))) false false))
(assert (or false false false false false false false false false false false false false false false false false false false false false false false false false false false false false false false false false false false false false false false false false false false false false false false false false false false false false false false false false false false false false false (and true true true (= _substvar_3570_ (_ bv0 11))) false false false false false false false false false false false false false false false false false false false false false false false false false false false false false false false false false false false false false false false false false false false false false false false false false false false false false false false false false false false false false false false false false false false false false false false false false false false false false false false false false false false false false false false false false false false false false false false false false false false false false false false false false false false false false false false false false false false false false false false false false false false false false false false false false false false false false false false false false false false false false false false false false false false false false false (and true true _substvar_6360_ (= _substvar_3570_ (bvsub (_ bv0 11) _substvar_3565_))) false false false false false false))
(assert (or false (= (_ bv905 11) _substvar_3561_) (= (_ bv905 11) _substvar_3565_) (= (_ bv905 11) _substvar_3570_)))
(check-sat)
(exit)
